Set parameter TokenServer to value "licences.gerad.lan"
Set parameter Threads to value 8
Gurobi Optimizer version 10.0.0 build v10.0.0rc2 (linux64)

CPU model: Intel(R) Xeon(R) Gold 6336Y CPU @ 2.40GHz, instruction set [SSE2|AVX|AVX2|AVX512]
Thread count: 48 physical cores, 48 logical processors, using up to 8 threads

Optimize a model with 16109 rows, 100 columns and 1610900 nonzeros
Model fingerprint: 0xa95f4f06
Variable types: 0 continuous, 100 integer (100 binary)
Coefficient statistics:
  Matrix range     [1e+00, 1e+00]
  Objective range  [1e+00, 1e+00]
  Bounds range     [1e+00, 1e+00]
  RHS range        [1e-03, 1e+00]
Found heuristic solution: objective 1.0000000
Presolve removed 16047 rows and 8 columns
Presolve time: 0.47s
Presolved: 62 rows, 92 columns, 5704 nonzeros
Variable types: 0 continuous, 92 integer (88 binary)

Explored 0 nodes (0 simplex iterations) in 0.59 seconds (0.28 work units)
Thread count was 8 (of 48 available processors)

Solution count 1: 1 

Optimal solution found (tolerance 1.00e-04)
Best objective 1.000000000000e+00, best bound 1.000000000000e+00, gap 0.0000%
Set parameter TokenServer to value "licences.gerad.lan"
Set parameter Threads to value 8
Gurobi Optimizer version 10.0.0 build v10.0.0rc2 (linux64)

CPU model: Intel(R) Xeon(R) Gold 6336Y CPU @ 2.40GHz, instruction set [SSE2|AVX|AVX2|AVX512]
Thread count: 48 physical cores, 48 logical processors, using up to 8 threads

Optimize a model with 16109 rows, 100 columns and 1610900 nonzeros
Model fingerprint: 0xa95f4f06
Variable types: 0 continuous, 100 integer (100 binary)
Coefficient statistics:
  Matrix range     [1e+00, 1e+00]
  Objective range  [1e+00, 1e+00]
  Bounds range     [1e+00, 1e+00]
  RHS range        [1e-03, 1e+00]
Found heuristic solution: objective 1.0000000
Presolve removed 16047 rows and 8 columns
Presolve time: 0.54s
Presolved: 62 rows, 92 columns, 5704 nonzeros
Variable types: 0 continuous, 92 integer (88 binary)

Explored 0 nodes (0 simplex iterations) in 0.63 seconds (0.28 work units)
Thread count was 8 (of 48 available processors)

Solution count 1: 1 

Optimal solution found (tolerance 1.00e-04)
Best objective 1.000000000000e+00, best bound 1.000000000000e+00, gap 0.0000%
